122     4       
24      22      20      28      
0       0       0       0       0       3       2       3       4       
4       0       0       0       9       3       8       10      31      
1       0       0       4       0       3       6       16      79      
3       0       0       4       0       3       5       7       21      
9       10      0       0       0       3       34      35      105     
7       0       0       0       5       3       17      22      51      
1       7       0       0       0       3       20      28      46      
6       0       1       0       0       3       9       11      12      
7       5       0       0       0       3       23      32      70      
5       0       1       0       0       3       13      25      87      
6       0       2       0       0       2       15      43      
7       0       0       3       0       3       14      26      33      
7       0       5       0       0       3       18      65      69      
4       0       5       0       0       3       18      29      36      
6       0       0       0       10      1       104     
10      0       0       0       1       2       40      54      
2       7       0       0       0       3       19      24      54      
2       0       7       0       0       1       48      
3       4       0       0       0       3       30      63      76      
3       9       0       0       0       3       34      38      109     
1       0       0       0       9       1       55      
5       0       0       1       0       2       68      76      
4       4       0       0       0       2       68      76      
5       0       1       0       0       3       32      49      83      
2       0       0       0       9       3       52      90      119     
9       0       1       0       0       3       27      37      101     
5       0       0       0       2       3       35      44      48      
5       10      0       0       0       1       110     
9       0       0       0       7       2       38      58      
8       0       8       0       0       2       36      81      
7       9       0       0       0       2       47      100     
9       0       0       0       6       2       40      42      
8       0       0       0       9       3       41      95      118     
5       0       0       4       0       1       88      
9       0       10      0       0       3       80      81      92      
1       6       0       0       0       1       39      
10      0       0       1       0       1       104     
10      0       0       4       0       3       45      75      114     
10      10      0       0       0       1       72      
1       0       0       10      0       3       56      63      71      
6       0       6       0       0       3       64      86      92      
10      0       0       0       2       3       50      66      68      
5       0       0       9       0       3       65      89      94      
7       0       0       4       0       3       50      53      83      
3       0       0       2       0       3       49      64      115     
8       0       4       0       0       3       59      60      72      
3       0       0       0       10      2       61      70      
4       0       0       0       5       2       74      112     
7       0       0       0       4       1       93      
2       10      0       0       0       2       52      56      
9       0       0       10      0       2       62      97      
3       0       0       0       6       1       84      
10      0       0       2       0       2       57      92      
4       7       0       0       0       1       113     
10      0       0       0       9       1       57      
1       0       0       2       0       1       99      
10      0       0       0       7       2       67      114     
3       5       0       0       0       1       85      
7       0       7       0       0       1       73      
3       0       3       0       0       2       82      103     
8       0       0       5       0       1       63      
9       0       0       0       2       1       87      
4       0       0       0       3       2       74      89      
1       1       0       0       0       2       107     116     
9       0       0       7       0       1       90      
4       0       3       0       0       1       82      
7       0       0       1       0       1       78      
5       6       0       0       0       1       91      
2       0       7       0       0       2       91      97      
6       1       0       0       0       2       77      86      
3       5       0       0       0       1       84      
10      0       9       0       0       1       93      
3       0       0       0       6       3       89      98      106     
5       0       0       10      0       2       95      102     
7       0       7       0       0       1       97      
6       0       0       0       6       1       108     
5       0       0       0       2       3       79      91      101     
7       0       0       1       0       1       79      
1       0       0       0       6       1       93      
7       0       0       0       9       1       94      
8       0       9       0       0       2       83      115     
2       0       6       0       0       1       115     
7       8       0       0       0       1       96      
1       0       7       0       0       3       95      106     108     
1       0       0       0       3       1       103     
6       0       0       0       7       2       98      108     
10      5       0       0       0       2       90      103     
8       0       7       0       0       1       110     
5       0       4       0       0       3       105     109     114     
5       0       0       2       0       1       107     
4       0       0       0       6       3       99      106     111     
3       0       7       0       0       3       98      100     117     
4       0       0       0       5       1       94      
3       0       0       4       0       1       99      
8       0       0       4       0       1       121     
9       0       5       0       0       1       119     
7       0       0       9       0       2       100     104     
1       0       0       6       0       1       102     
10      0       0       0       10      1       112     
6       0       0       0       1       1       113     
6       0       0       0       6       2       102     109     
7       0       9       0       0       1       110     
2       2       0       0       0       1       107     
10      0       0       7       0       3       105     111     117     
9       0       0       0       6       1       119     
9       0       5       0       0       1       121     
3       0       0       0       9       1       120     
3       6       0       0       0       1       112     
3       0       6       0       0       1       118     
7       0       0       3       0       1       111     
3       4       0       0       0       1       113     
3       8       0       0       0       1       116     
3       5       0       0       0       1       116     
9       0       0       0       10      1       117     
2       0       10      0       0       1       118     
1       0       0       10      0       1       121     
3       0       0       0       2       1       120     
5       0       6       0       0       1       120     
6       0       4       0       0       1       122     
8       0       7       0       0       1       122     
6       0       4       0       0       1       122     
0       0       0       0       0       0       